(declare-const term_to_project_onto0 Real)
(declare-const term_to_project_onto1 Real)
(declare-const term_to_project_onto Real)
(assert (exists
         ((uninterp?1 Int) (|y3'?2| Int) (|y2'?3| Int) (|y1'?4| Int)
            (phi_y2?5 Int) (phi_y1?6 Int) (y1?7 Int) (y2?8 Int) (y3?9 Int)
            (x2?10 Int) (x1?11 Int))
         (and (<= (- y1?7) 0) (<= (- y2?8) 0) (<= (- y3?9) 0)
                (<= (- x1?11) 0) (= (+ (- x1?11) y3?9 y2?8 uninterp?1) 0)
                (or (<= (+ y3?9 1) 0) (<= (+ (- y3?9) 1) 0))
                (or (and (or (<= (+ (- x2?10) y2?8 2) 0)
                               (<= (+ x2?10 (- y2?8)) 0))
                           (= (+ (- phi_y1?6) y1?7) 0)
                           (= (+ (- phi_y2?5) y2?8 1) 0))
                      (and (= (+ (- x2?10) y2?8 1) 0)
                             (= (+ (- phi_y1?6) y1?7 1) 0) (= (- phi_y2?5) 0)))
                (= (+ |y3'?2| (- y3?9) 1) 0) (= (+ |y2'?3| (- phi_y2?5)) 0)
                (= (+ |y1'?4| (- phi_y1?6)) 0)
                (= term_to_project_onto1 (+ |y1'?4| (- y1?7)))
                (= term_to_project_onto0 (+ |y2'?3| (- y2?8)))
                (= term_to_project_onto (+ |y3'?2| (- y3?9))))))
(check-sat)
